c FILE: i160-343

c SOURCE: From steinlib

c DESCRIPTION: Steinlib instance with 160 nodes and 2544 edges.

p edge 160 2544
e 1 2
e 1 3
e 1 7
e 1 11
e 1 12
e 1 13
e 1 16
e 1 17
e 1 18
e 1 32
e 1 33
e 1 36
e 1 37
e 1 38
e 1 40
e 1 55
e 1 57
e 1 66
e 1 75
e 1 78
e 1 83
e 1 88
e 1 91
e 1 97
e 1 99
e 1 102
e 1 103
e 1 105
e 1 109
e 1 112
e 1 117
e 1 118
e 1 121
e 1 122
e 1 128
e 1 133
e 1 136
e 1 138
e 1 139
e 1 148
e 1 151
e 1 152
e 1 156
e 2 5
e 2 8
e 2 17
e 2 19
e 2 21
e 2 23
e 2 29
e 2 35
e 2 37
e 2 41
e 2 49
e 2 51
e 2 56
e 2 68
e 2 72
e 2 83
e 2 84
e 2 89
e 2 96
e 2 97
e 2 102
e 2 104
e 2 105
e 2 108
e 2 109
e 2 119
e 2 136
e 2 143
e 2 144
e 2 149
e 2 154
e 2 156
e 2 158
e 2 159
e 2 160
e 3 6
e 3 34
e 3 36
e 3 40
e 3 44
e 3 48
e 3 61
e 3 67
e 3 76
e 3 83
e 3 84
e 3 92
e 3 99
e 3 102
e 3 116
e 3 118
e 3 120
e 3 121
e 3 122
e 3 127
e 3 144
e 3 147
e 3 153
e 4 10
e 4 18
e 4 20
e 4 32
e 4 35
e 4 44
e 4 52
e 4 57
e 4 61
e 4 66
e 4 72
e 4 75
e 4 77
e 4 78
e 4 81
e 4 92
e 4 102
e 4 121
e 4 125
e 4 128
e 4 149
e 4 150
e 4 157
e 5 11
e 5 17
e 5 22
e 5 33
e 5 48
e 5 50
e 5 54
e 5 56
e 5 59
e 5 71
e 5 75
e 5 91
e 5 95
e 5 102
e 5 113
e 5 129
e 5 130
e 5 131
e 5 136
e 5 137
e 5 142
e 5 143
e 5 144
e 5 149
e 5 160
e 6 16
e 6 17
e 6 21
e 6 29
e 6 38
e 6 47
e 6 59
e 6 65
e 6 69
e 6 70
e 6 83
e 6 88
e 6 89
e 6 93
e 6 94
e 6 95
e 6 102
e 6 105
e 6 106
e 6 107
e 6 109
e 6 112
e 6 115
e 6 119
e 6 122
e 6 123
e 6 124
e 6 127
e 6 128
e 6 129
e 6 136
e 6 137
e 6 141
e 6 143
e 6 148
e 6 155
e 7 13
e 7 19
e 7 23
e 7 33
e 7 34
e 7 44
e 7 51
e 7 53
e 7 57
e 7 59
e 7 66
e 7 69
e 7 74
e 7 79
e 7 81
e 7 83
e 7 90
e 7 103
e 7 104
e 7 109
e 7 110
e 7 121
e 7 123
e 7 128
e 7 134
e 7 135
e 7 138
e 7 140
e 7 141
e 7 150
e 7 159
e 8 13
e 8 20
e 8 28
e 8 32
e 8 34
e 8 36
e 8 46
e 8 53
e 8 56
e 8 70
e 8 71
e 8 73
e 8 78
e 8 79
e 8 82
e 8 85
e 8 88
e 8 93
e 8 94
e 8 101
e 8 102
e 8 107
e 8 108
e 8 109
e 8 116
e 8 119
e 8 134
e 8 135
e 8 141
e 8 149
e 8 155
e 8 159
e 9 15
e 9 21
e 9 22
e 9 26
e 9 37
e 9 40
e 9 44
e 9 55
e 9 62
e 9 67
e 9 69
e 9 74
e 9 77
e 9 82
e 9 85
e 9 86
e 9 90
e 9 108
e 9 109
e 9 113
e 9 116
e 9 136
e 9 138
e 9 139
e 9 140
e 9 147
e 9 149
e 9 154
e 10 12
e 10 22
e 10 23
e 10 27
e 10 28
e 10 31
e 10 36
e 10 41
e 10 47
e 10 50
e 10 51
e 10 68
e 10 69
e 10 77
e 10 83
e 10 88
e 10 101
e 10 102
e 10 110
e 10 116
e 10 121
e 10 122
e 10 131
e 10 132
e 10 134
e 10 135
e 10 138
e 10 142
e 10 148
e 10 150
e 10 153
e 11 15
e 11 16
e 11 19
e 11 21
e 11 43
e 11 45
e 11 54
e 11 56
e 11 63
e 11 66
e 11 75
e 11 86
e 11 88
e 11 92
e 11 93
e 11 95
e 11 104
e 11 110
e 11 111
e 11 114
e 11 116
e 11 124
e 11 129
e 11 139
e 11 142
e 11 147
e 11 155
e 12 17
e 12 19
e 12 20
e 12 22
e 12 24
e 12 33
e 12 39
e 12 42
e 12 44
e 12 46
e 12 50
e 12 57
e 12 59
e 12 61
e 12 63
e 12 68
e 12 69
e 12 75
e 12 76
e 12 87
e 12 97
e 12 100
e 12 106
e 12 108
e 12 112
e 12 113
e 12 119
e 12 122
e 12 126
e 12 127
e 12 132
e 12 137
e 12 141
e 12 143
e 12 148
e 12 151
e 12 154
e 12 155
e 12 160
e 13 18
e 13 23
e 13 35
e 13 41
e 13 42
e 13 52
e 13 63
e 13 64
e 13 69
e 13 76
e 13 77
e 13 79
e 13 91
e 13 98
e 13 106
e 13 107
e 13 113
e 13 118
e 13 122
e 13 124
e 13 136
e 13 146
e 13 149
e 13 151
e 13 157
e 13 159
e 14 15
e 14 20
e 14 32
e 14 36
e 14 41
e 14 52
e 14 56
e 14 58
e 14 66
e 14 67
e 14 68
e 14 69
e 14 70
e 14 71
e 14 72
e 14 86
e 14 95
e 14 98
e 14 111
e 14 117
e 14 118
e 14 123
e 14 132
e 14 136
e 14 138
e 14 143
e 14 146
e 14 147
e 14 148
e 14 151
e 15 16
e 15 32
e 15 36
e 15 38
e 15 40
e 15 42
e 15 58
e 15 67
e 15 74
e 15 77
e 15 83
e 15 88
e 15 93
e 15 101
e 15 107
e 15 109
e 15 116
e 15 125
e 15 131
e 15 132
e 15 134
e 15 143
e 15 144
e 15 146
e 15 154
e 15 155
e 15 159
e 16 26
e 16 35
e 16 39
e 16 41
e 16 48
e 16 50
e 16 54
e 16 58
e 16 62
e 16 64
e 16 65
e 16 67
e 16 68
e 16 70
e 16 71
e 16 77
e 16 78
e 16 91
e 16 95
e 16 99
e 16 101
e 16 105
e 16 107
e 16 112
e 16 113
e 16 114
e 16 116
e 16 120
e 16 122
e 16 124
e 16 140
e 16 141
e 16 143
e 16 149
e 16 153
e 17 19
e 17 21
e 17 33
e 17 39
e 17 41
e 17 43
e 17 50
e 17 58
e 17 59
e 17 61
e 17 68
e 17 73
e 17 74
e 17 75
e 17 77
e 17 82
e 17 87
e 17 89
e 17 91
e 17 95
e 17 99
e 17 103
e 17 109
e 17 114
e 17 117
e 17 120
e 17 133
e 17 136
e 17 140
e 17 142
e 17 149
e 17 150
e 18 20
e 18 31
e 18 34
e 18 35
e 18 36
e 18 38
e 18 41
e 18 45
e 18 47
e 18 54
e 18 62
e 18 65
e 18 67
e 18 68
e 18 70
e 18 72
e 18 78
e 18 82
e 18 87
e 18 88
e 18 100
e 18 104
e 18 108
e 18 110
e 18 131
e 18 136
e 18 139
e 18 141
e 18 157
e 18 159
e 19 23
e 19 27
e 19 39
e 19 49
e 19 55
e 19 58
e 19 60
e 19 62
e 19 69
e 19 78
e 19 79
e 19 82
e 19 83
e 19 86
e 19 89
e 19 91
e 19 104
e 19 107
e 19 115
e 19 117
e 19 123
e 19 129
e 19 131
e 19 135
e 19 137
e 19 141
e 19 142
e 19 145
e 19 148
e 19 149
e 19 152
e 19 155
e 20 21
e 20 22
e 20 26
e 20 27
e 20 34
e 20 49
e 20 51
e 20 54
e 20 59
e 20 61
e 20 69
e 20 74
e 20 78
e 20 81
e 20 84
e 20 85
e 20 86
e 20 87
e 20 88
e 20 89
e 20 95
e 20 104
e 20 105
e 20 107
e 20 117
e 20 118
e 20 122
e 20 124
e 20 127
e 20 133
e 20 134
e 20 141
e 20 143
e 20 144
e 20 146
e 20 152
e 20 153
e 20 159
e 21 24
e 21 28
e 21 36
e 21 38
e 21 48
e 21 54
e 21 63
e 21 65
e 21 67
e 21 74
e 21 78
e 21 81
e 21 82
e 21 87
e 21 93
e 21 94
e 21 109
e 21 121
e 21 123
e 21 127
e 21 128
e 21 134
e 21 141
e 21 143
e 21 155
e 22 23
e 22 38
e 22 44
e 22 48
e 22 49
e 22 63
e 22 64
e 22 65
e 22 69
e 22 72
e 22 74
e 22 76
e 22 91
e 22 92
e 22 102
e 22 103
e 22 113
e 22 114
e 22 124
e 22 141
e 22 142
e 22 144
e 22 157
e 23 26
e 23 35
e 23 41
e 23 44
e 23 53
e 23 55
e 23 60
e 23 64
e 23 72
e 23 77
e 23 82
e 23 87
e 23 90
e 23 93
e 23 94
e 23 95
e 23 96
e 23 97
e 23 100
e 23 105
e 23 122
e 23 123
e 23 129
e 23 141
e 23 147
e 23 154
e 23 156
e 23 159
e 24 30
e 24 48
e 24 49
e 24 60
e 24 61
e 24 63
e 24 77
e 24 79
e 24 82
e 24 85
e 24 88
e 24 97
e 24 99
e 24 113
e 24 128
e 24 134
e 24 141
e 24 152
e 24 153
e 24 157
e 25 28
e 25 33
e 25 38
e 25 48
e 25 49
e 25 61
e 25 65
e 25 68
e 25 76
e 25 79
e 25 95
e 25 100
e 25 106
e 25 110
e 25 114
e 25 121
e 25 133
e 25 136
e 25 137
e 25 141
e 25 146
e 25 148
e 25 153
e 26 28
e 26 34
e 26 56
e 26 57
e 26 61
e 26 62
e 26 67
e 26 85
e 26 86
e 26 89
e 26 92
e 26 100
e 26 102
e 26 105
e 26 114
e 26 118
e 26 121
e 26 122
e 26 130
e 26 131
e 26 135
e 26 139
e 26 153
e 26 154
e 26 158
e 27 32
e 27 45
e 27 47
e 27 54
e 27 61
e 27 73
e 27 76
e 27 82
e 27 86
e 27 93
e 27 95
e 27 96
e 27 97
e 27 103
e 27 106
e 27 107
e 27 110
e 27 119
e 27 120
e 27 138
e 27 139
e 27 150
e 27 151
e 27 155
e 27 157
e 28 31
e 28 39
e 28 44
e 28 58
e 28 64
e 28 68
e 28 71
e 28 72
e 28 77
e 28 82
e 28 84
e 28 87
e 28 93
e 28 95
e 28 102
e 28 105
e 28 124
e 28 133
e 28 152
e 28 156
e 28 157
e 28 158
e 29 35
e 29 57
e 29 61
e 29 65
e 29 69
e 29 75
e 29 76
e 29 82
e 29 86
e 29 91
e 29 93
e 29 95
e 29 97
e 29 98
e 29 99
e 29 101
e 29 102
e 29 108
e 29 111
e 29 113
e 29 115
e 29 123
e 29 130
e 29 131
e 29 143
e 29 144
e 29 148
e 29 150
e 29 152
e 29 153
e 29 156
e 30 32
e 30 35
e 30 40
e 30 45
e 30 47
e 30 54
e 30 57
e 30 66
e 30 68
e 30 72
e 30 73
e 30 74
e 30 76
e 30 80
e 30 85
e 30 91
e 30 98
e 30 100
e 30 116
e 30 118
e 30 120
e 30 122
e 30 124
e 30 127
e 30 134
e 30 141
e 30 143
e 30 147
e 30 157
e 31 41
e 31 42
e 31 49
e 31 51
e 31 56
e 31 63
e 31 69
e 31 73
e 31 74
e 31 75
e 31 80
e 31 90
e 31 102
e 31 104
e 31 117
e 31 119
e 31 120
e 31 124
e 31 126
e 31 138
e 31 139
e 31 140
e 31 142
e 31 146
e 31 147
e 31 149
e 31 151
e 31 152
e 31 153
e 32 42
e 32 43
e 32 44
e 32 45
e 32 46
e 32 49
e 32 52
e 32 64
e 32 66
e 32 67
e 32 73
e 32 80
e 32 90
e 32 93
e 32 96
e 32 99
e 32 100
e 32 102
e 32 109
e 32 118
e 32 129
e 32 137
e 32 138
e 32 145
e 32 146
e 32 149
e 32 155
e 32 157
e 33 35
e 33 39
e 33 50
e 33 52
e 33 56
e 33 57
e 33 59
e 33 61
e 33 62
e 33 66
e 33 73
e 33 74
e 33 78
e 33 79
e 33 80
e 33 83
e 33 85
e 33 87
e 33 94
e 33 95
e 33 98
e 33 100
e 33 105
e 33 107
e 33 114
e 33 115
e 33 121
e 33 134
e 33 135
e 33 138
e 33 151
e 33 154
e 33 156
e 34 35
e 34 36
e 34 37
e 34 46
e 34 51
e 34 57
e 34 62
e 34 71
e 34 77
e 34 80
e 34 82
e 34 93
e 34 97
e 34 98
e 34 99
e 34 100
e 34 103
e 34 104
e 34 110
e 34 112
e 34 114
e 34 131
e 34 137
e 34 138
e 34 145
e 34 148
e 34 153
e 35 38
e 35 41
e 35 42
e 35 49
e 35 50
e 35 53
e 35 64
e 35 65
e 35 71
e 35 74
e 35 76
e 35 80
e 35 83
e 35 84
e 35 94
e 35 100
e 35 108
e 35 109
e 35 113
e 35 120
e 35 123
e 35 126
e 35 147
e 35 160
e 36 44
e 36 59
e 36 62
e 36 67
e 36 74
e 36 77
e 36 78
e 36 81
e 36 82
e 36 86
e 36 94
e 36 100
e 36 102
e 36 106
e 36 110
e 36 115
e 36 131
e 36 135
e 36 137
e 36 141
e 36 143
e 36 145
e 36 152
e 36 156
e 36 157
e 37 38
e 37 46
e 37 49
e 37 54
e 37 57
e 37 61
e 37 62
e 37 64
e 37 67
e 37 83
e 37 85
e 37 89
e 37 91
e 37 92
e 37 93
e 37 110
e 37 113
e 37 119
e 37 120
e 37 130
e 37 137
e 37 139
e 37 142
e 37 146
e 37 160
e 38 39
e 38 41
e 38 44
e 38 49
e 38 50
e 38 53
e 38 58
e 38 67
e 38 68
e 38 75
e 38 76
e 38 80
e 38 81
e 38 83
e 38 88
e 38 92
e 38 98
e 38 101
e 38 112
e 38 126
e 38 127
e 38 136
e 38 137
e 38 138
e 38 139
e 38 145
e 38 158
e 39 40
e 39 47
e 39 48
e 39 49
e 39 64
e 39 73
e 39 78
e 39 82
e 39 91
e 39 98
e 39 100
e 39 105
e 39 108
e 39 113
e 39 114
e 39 116
e 39 118
e 39 121
e 39 122
e 39 130
e 39 131
e 39 133
e 39 138
e 39 139
e 39 145
e 39 157
e 40 41
e 40 42
e 40 48
e 40 49
e 40 50
e 40 52
e 40 59
e 40 61
e 40 63
e 40 64
e 40 67
e 40 71
e 40 75
e 40 85
e 40 97
e 40 98
e 40 104
e 40 114
e 40 117
e 40 139
e 40 145
e 40 147
e 40 153
e 40 159
e 40 160
e 41 46
e 41 47
e 41 49
e 41 51
e 41 55
e 41 56
e 41 58
e 41 65
e 41 68
e 41 74
e 41 75
e 41 77
e 41 78
e 41 79
e 41 83
e 41 90
e 41 92
e 41 96
e 41 101
e 41 104
e 41 111
e 41 113
e 41 114
e 41 116
e 41 126
e 41 134
e 41 137
e 41 139
e 41 141
e 41 144
e 41 147
e 41 155
e 41 158
e 41 159
e 42 49
e 42 59
e 42 61
e 42 63
e 42 67
e 42 71
e 42 75
e 42 77
e 42 80
e 42 83
e 42 85
e 42 87
e 42 91
e 42 93
e 42 105
e 42 119
e 42 122
e 42 133
e 42 135
e 42 147
e 42 148
e 42 152
e 42 156
e 42 157
e 42 159
e 43 46
e 43 48
e 43 51
e 43 53
e 43 56
e 43 57
e 43 59
e 43 64
e 43 65
e 43 67
e 43 85
e 43 86
e 43 102
e 43 103
e 43 109
e 43 111
e 43 122
e 43 124
e 43 126
e 43 134
e 43 138
e 43 141
e 43 146
e 43 150
e 43 153
e 43 156
e 43 157
e 44 46
e 44 52
e 44 54
e 44 56
e 44 60
e 44 74
e 44 85
e 44 87
e 44 92
e 44 101
e 44 108
e 44 113
e 44 115
e 44 116
e 44 117
e 44 118
e 44 126
e 44 129
e 44 130
e 44 131
e 44 132
e 44 144
e 44 149
e 44 158
e 45 58
e 45 60
e 45 68
e 45 71
e 45 78
e 45 82
e 45 90
e 45 91
e 45 99
e 45 101
e 45 121
e 45 130
e 45 132
e 45 135
e 45 139
e 45 143
e 45 146
e 45 150
e 45 152
e 45 160
e 46 49
e 46 58
e 46 61
e 46 63
e 46 64
e 46 70
e 46 87
e 46 90
e 46 91
e 46 96
e 46 100
e 46 108
e 46 110
e 46 112
e 46 113
e 46 115
e 46 120
e 46 121
e 46 127
e 46 146
e 46 151
e 46 152
e 46 159
e 47 57
e 47 59
e 47 63
e 47 70
e 47 75
e 47 78
e 47 81
e 47 91
e 47 97
e 47 100
e 47 131
e 47 136
e 47 143
e 47 145
e 47 148
e 47 150
e 47 155
e 47 156
e 48 54
e 48 58
e 48 63
e 48 65
e 48 85
e 48 86
e 48 87
e 48 92
e 48 96
e 48 97
e 48 100
e 48 108
e 48 114
e 48 116
e 48 125
e 48 126
e 48 149
e 48 151
e 48 159
e 48 160
e 49 50
e 49 51
e 49 54
e 49 58
e 49 61
e 49 63
e 49 72
e 49 74
e 49 78
e 49 81
e 49 87
e 49 99
e 49 101
e 49 108
e 49 119
e 49 122
e 49 131
e 49 136
e 49 148
e 49 149
e 49 152
e 49 157
e 50 55
e 50 59
e 50 67
e 50 69
e 50 74
e 50 82
e 50 95
e 50 100
e 50 112
e 50 113
e 50 116
e 50 120
e 50 125
e 50 128
e 50 138
e 50 139
e 50 141
e 50 145
e 50 148
e 50 151
e 51 61
e 51 66
e 51 77
e 51 78
e 51 86
e 51 88
e 51 90
e 51 96
e 51 97
e 51 101
e 51 110
e 51 126
e 51 127
e 51 128
e 51 131
e 51 134
e 51 138
e 51 142
e 51 157
e 51 160
e 52 58
e 52 68
e 52 69
e 52 74
e 52 76
e 52 81
e 52 90
e 52 102
e 52 118
e 52 120
e 52 125
e 52 129
e 52 131
e 52 137
e 52 143
e 52 149
e 52 154
e 52 159
e 52 160
e 53 57
e 53 60
e 53 65
e 53 66
e 53 81
e 53 90
e 53 92
e 53 97
e 53 108
e 53 109
e 53 117
e 53 124
e 53 133
e 53 138
e 53 150
e 53 153
e 53 155
e 53 158
e 54 56
e 54 63
e 54 65
e 54 77
e 54 85
e 54 91
e 54 92
e 54 93
e 54 94
e 54 99
e 54 100
e 54 107
e 54 115
e 54 121
e 54 122
e 54 125
e 54 132
e 54 146
e 55 60
e 55 64
e 55 84
e 55 93
e 55 95
e 55 108
e 55 117
e 55 123
e 55 124
e 55 134
e 55 137
e 55 142
e 55 149
e 55 152
e 55 160
e 56 65
e 56 66
e 56 76
e 56 78
e 56 82
e 56 83
e 56 84
e 56 87
e 56 95
e 56 98
e 56 103
e 56 110
e 56 111
e 56 116
e 56 119
e 56 120
e 56 124
e 56 125
e 56 130
e 56 137
e 56 144
e 56 150
e 56 157
e 57 58
e 57 65
e 57 69
e 57 81
e 57 107
e 57 129
e 57 131
e 57 134
e 57 137
e 57 138
e 57 139
e 57 144
e 57 148
e 57 155
e 57 156
e 57 157
e 58 64
e 58 66
e 58 69
e 58 70
e 58 84
e 58 88
e 58 94
e 58 95
e 58 109
e 58 114
e 58 118
e 58 125
e 58 126
e 58 131
e 58 143
e 58 147
e 58 149
e 59 60
e 59 66
e 59 68
e 59 71
e 59 73
e 59 77
e 59 79
e 59 81
e 59 88
e 59 89
e 59 92
e 59 95
e 59 99
e 59 106
e 59 112
e 59 116
e 59 118
e 59 119
e 59 126
e 59 135
e 59 138
e 59 139
e 59 148
e 59 156
e 59 157
e 60 61
e 60 62
e 60 64
e 60 70
e 60 74
e 60 88
e 60 97
e 60 106
e 60 113
e 60 126
e 60 136
e 60 138
e 60 140
e 60 153
e 60 154
e 60 158
e 61 62
e 61 63
e 61 64
e 61 77
e 61 79
e 61 84
e 61 90
e 61 91
e 61 97
e 61 103
e 61 117
e 61 126
e 61 134
e 61 135
e 61 139
e 61 142
e 61 150
e 61 154
e 61 159
e 62 65
e 62 68
e 62 69
e 62 73
e 62 74
e 62 75
e 62 77
e 62 82
e 62 89
e 62 93
e 62 94
e 62 96
e 62 120
e 62 121
e 62 129
e 62 132
e 62 136
e 62 152
e 62 156
e 62 159
e 63 73
e 63 77
e 63 80
e 63 82
e 63 84
e 63 89
e 63 90
e 63 104
e 63 106
e 63 109
e 63 118
e 63 131
e 63 133
e 63 134
e 63 143
e 63 159
e 64 66
e 64 78
e 64 79
e 64 83
e 64 90
e 64 93
e 64 105
e 64 109
e 64 113
e 64 116
e 64 117
e 64 119
e 64 122
e 64 129
e 64 139
e 64 141
e 64 144
e 64 148
e 65 70
e 65 81
e 65 90
e 65 92
e 65 97
e 65 100
e 65 104
e 65 105
e 65 111
e 65 112
e 65 116
e 65 120
e 65 121
e 65 122
e 65 129
e 65 139
e 65 142
e 65 146
e 65 149
e 65 153
e 65 154
e 65 155
e 66 69
e 66 75
e 66 86
e 66 93
e 66 94
e 66 96
e 66 107
e 66 108
e 66 115
e 66 123
e 66 136
e 66 137
e 66 153
e 67 82
e 67 97
e 67 99
e 67 102
e 67 105
e 67 109
e 67 110
e 67 122
e 67 134
e 67 135
e 67 136
e 67 139
e 67 153
e 67 155
e 68 70
e 68 79
e 68 80
e 68 83
e 68 90
e 68 94
e 68 95
e 68 104
e 68 108
e 68 111
e 68 116
e 68 120
e 68 121
e 68 132
e 68 153
e 68 156
e 68 159
e 69 82
e 69 88
e 69 91
e 69 98
e 69 104
e 69 107
e 69 124
e 69 127
e 69 136
e 69 140
e 69 142
e 69 144
e 69 147
e 69 152
e 69 153
e 69 157
e 69 160
e 70 71
e 70 75
e 70 77
e 70 80
e 70 84
e 70 90
e 70 91
e 70 102
e 70 105
e 70 110
e 70 129
e 70 139
e 70 146
e 70 158
e 70 160
e 71 74
e 71 81
e 71 86
e 71 90
e 71 99
e 71 113
e 71 122
e 71 124
e 71 127
e 71 136
e 71 151
e 71 158
e 72 77
e 72 81
e 72 82
e 72 83
e 72 91
e 72 95
e 72 97
e 72 104
e 72 114
e 72 116
e 72 119
e 72 120
e 72 122
e 72 130
e 72 134
e 72 135
e 72 139
e 72 148
e 72 156
e 73 87
e 73 90
e 73 97
e 73 98
e 73 102
e 73 118
e 73 124
e 73 125
e 73 127
e 73 129
e 73 131
e 73 138
e 73 139
e 73 142
e 73 143
e 73 151
e 74 76
e 74 95
e 74 98
e 74 105
e 74 108
e 74 112
e 74 126
e 74 138
e 74 139
e 74 144
e 74 150
e 74 152
e 74 153
e 74 154
e 74 158
e 74 159
e 75 81
e 75 88
e 75 95
e 75 96
e 75 107
e 75 111
e 75 116
e 75 120
e 75 121
e 75 125
e 75 133
e 75 136
e 75 141
e 75 142
e 75 144
e 75 160
e 76 77
e 76 80
e 76 81
e 76 89
e 76 95
e 76 98
e 76 100
e 76 102
e 76 106
e 76 110
e 76 112
e 76 115
e 76 117
e 76 129
e 76 134
e 76 137
e 76 139
e 76 140
e 76 142
e 76 149
e 76 157
e 76 159
e 77 81
e 77 85
e 77 95
e 77 103
e 77 109
e 77 110
e 77 111
e 77 114
e 77 122
e 77 140
e 77 141
e 77 145
e 77 150
e 78 81
e 78 82
e 78 84
e 78 85
e 78 91
e 78 93
e 78 94
e 78 95
e 78 101
e 78 108
e 78 113
e 78 121
e 78 122
e 78 124
e 78 127
e 78 149
e 78 151
e 78 152
e 78 154
e 79 85
e 79 89
e 79 95
e 79 98
e 79 106
e 79 109
e 79 111
e 79 113
e 79 114
e 79 118
e 79 121
e 79 123
e 79 129
e 79 131
e 79 138
e 79 141
e 79 142
e 79 145
e 79 155
e 79 156
e 79 159
e 80 87
e 80 90
e 80 96
e 80 100
e 80 105
e 80 107
e 80 109
e 80 110
e 80 120
e 80 129
e 80 132
e 80 137
e 80 140
e 80 144
e 80 145
e 80 146
e 80 147
e 80 151
e 80 155
e 80 158
e 80 159
e 81 85
e 81 97
e 81 104
e 81 106
e 81 112
e 81 119
e 81 126
e 81 130
e 81 134
e 81 139
e 81 143
e 81 153
e 81 155
e 81 160
e 82 86
e 82 94
e 82 106
e 82 108
e 82 115
e 82 119
e 82 125
e 82 127
e 82 131
e 82 132
e 82 136
e 82 146
e 82 152
e 83 114
e 83 118
e 83 120
e 83 126
e 83 134
e 83 136
e 83 138
e 84 86
e 84 88
e 84 90
e 84 93
e 84 97
e 84 107
e 84 108
e 84 117
e 84 124
e 84 128
e 84 130
e 84 142
e 84 143
e 84 146
e 84 149
e 84 153
e 85 87
e 85 89
e 85 91
e 85 92
e 85 96
e 85 97
e 85 99
e 85 106
e 85 117
e 85 135
e 85 136
e 85 138
e 85 144
e 85 145
e 85 153
e 85 156
e 85 157
e 86 90
e 86 91
e 86 95
e 86 96
e 86 98
e 86 99
e 86 108
e 86 112
e 86 113
e 86 125
e 86 129
e 86 131
e 86 139
e 86 140
e 86 149
e 86 150
e 86 154
e 86 160
e 87 89
e 87 94
e 87 100
e 87 102
e 87 108
e 87 114
e 87 116
e 87 117
e 87 120
e 87 127
e 87 128
e 87 129
e 87 131
e 87 134
e 87 140
e 87 141
e 87 142
e 87 145
e 88 97
e 88 99
e 88 111
e 88 113
e 88 114
e 88 118
e 88 127
e 88 131
e 88 137
e 88 139
e 88 148
e 88 154
e 89 90
e 89 91
e 89 93
e 89 95
e 89 100
e 89 108
e 89 109
e 89 117
e 89 119
e 89 120
e 89 126
e 89 127
e 89 128
e 89 129
e 89 134
e 89 138
e 89 143
e 89 148
e 89 149
e 89 151
e 89 155
e 89 157
e 89 159
e 90 93
e 90 95
e 90 96
e 90 102
e 90 105
e 90 107
e 90 119
e 90 129
e 90 138
e 90 140
e 90 150
e 90 151
e 90 154
e 90 159
e 91 93
e 91 94
e 91 96
e 91 101
e 91 106
e 91 110
e 91 120
e 91 123
e 91 127
e 91 128
e 91 130
e 91 145
e 91 153
e 91 154
e 91 157
e 92 100
e 92 104
e 92 111
e 92 113
e 92 117
e 92 125
e 92 127
e 92 134
e 92 136
e 92 137
e 92 141
e 92 151
e 92 152
e 92 154
e 92 155
e 93 100
e 93 109
e 93 112
e 93 113
e 93 114
e 93 120
e 93 123
e 93 128
e 93 137
e 93 140
e 93 141
e 93 145
e 93 151
e 93 152
e 93 153
e 93 160
e 94 102
e 94 108
e 94 110
e 94 116
e 94 125
e 94 137
e 94 138
e 94 139
e 94 143
e 94 147
e 94 151
e 95 96
e 95 103
e 95 107
e 95 108
e 95 111
e 95 121
e 95 124
e 95 127
e 95 130
e 95 133
e 95 138
e 95 139
e 95 141
e 95 144
e 95 146
e 95 147
e 96 97
e 96 102
e 96 119
e 96 120
e 96 126
e 96 133
e 96 134
e 96 143
e 96 151
e 96 153
e 96 154
e 96 158
e 97 102
e 97 115
e 97 129
e 97 131
e 97 138
e 97 140
e 97 143
e 98 102
e 98 103
e 98 111
e 98 117
e 98 122
e 98 123
e 98 135
e 98 136
e 98 141
e 98 142
e 98 148
e 98 158
e 98 159
e 99 101
e 99 102
e 99 103
e 99 107
e 99 111
e 99 115
e 99 127
e 99 129
e 99 131
e 99 132
e 99 138
e 99 146
e 99 147
e 99 148
e 99 150
e 100 104
e 100 107
e 100 123
e 100 142
e 101 120
e 101 121
e 101 122
e 101 129
e 101 130
e 101 133
e 101 134
e 101 135
e 101 137
e 101 138
e 101 156
e 101 159
e 102 110
e 102 123
e 102 131
e 102 134
e 102 139
e 102 148
e 102 157
e 102 158
e 102 159
e 103 118
e 103 125
e 103 127
e 103 129
e 103 132
e 103 133
e 103 140
e 103 142
e 103 150
e 104 105
e 104 109
e 104 116
e 104 123
e 104 124
e 104 137
e 104 138
e 104 142
e 104 144
e 104 151
e 105 110
e 105 118
e 105 133
e 105 136
e 105 137
e 105 139
e 105 141
e 106 119
e 106 121
e 106 122
e 106 124
e 106 125
e 106 129
e 106 137
e 106 142
e 106 143
e 106 148
e 106 149
e 106 153
e 106 154
e 107 108
e 107 113
e 107 115
e 107 116
e 107 117
e 107 123
e 107 125
e 107 130
e 107 139
e 107 141
e 107 144
e 107 148
e 107 152
e 107 153
e 107 156
e 108 110
e 108 118
e 108 119
e 108 128
e 108 132
e 108 150
e 108 153
e 108 154
e 109 110
e 109 111
e 109 117
e 109 125
e 109 133
e 109 137
e 109 146
e 109 147
e 109 150
e 109 159
e 110 112
e 110 114
e 110 119
e 110 135
e 110 137
e 110 140
e 110 145
e 110 146
e 110 147
e 110 152
e 111 112
e 111 113
e 111 118
e 111 120
e 111 128
e 111 139
e 111 142
e 111 147
e 111 149
e 111 152
e 111 154
e 111 156
e 111 159
e 112 113
e 112 114
e 112 118
e 112 127
e 112 130
e 112 136
e 112 143
e 112 144
e 112 149
e 112 150
e 112 157
e 112 158
e 113 116
e 113 118
e 113 123
e 113 131
e 113 134
e 113 137
e 113 157
e 114 119
e 114 120
e 114 121
e 114 122
e 114 125
e 114 127
e 114 140
e 114 151
e 114 159
e 115 118
e 115 120
e 115 125
e 115 137
e 115 139
e 115 140
e 115 144
e 115 148
e 115 151
e 115 152
e 115 154
e 115 156
e 116 117
e 116 119
e 116 129
e 116 132
e 116 139
e 116 142
e 116 148
e 116 155
e 116 158
e 116 159
e 117 118
e 117 123
e 117 130
e 117 133
e 117 146
e 117 149
e 117 160
e 118 121
e 118 123
e 118 125
e 118 133
e 118 137
e 118 139
e 118 142
e 118 151
e 118 153
e 118 154
e 118 156
e 119 120
e 119 126
e 119 127
e 119 130
e 119 138
e 119 139
e 119 140
e 119 141
e 119 147
e 119 153
e 119 154
e 119 158
e 120 123
e 120 127
e 120 128
e 120 130
e 120 136
e 120 143
e 120 148
e 120 150
e 120 154
e 120 155
e 120 157
e 120 159
e 121 122
e 121 124
e 121 127
e 121 128
e 121 133
e 121 134
e 121 141
e 121 144
e 121 145
e 121 149
e 122 124
e 122 128
e 122 135
e 122 143
e 122 147
e 122 148
e 122 150
e 122 153
e 122 154
e 123 144
e 123 145
e 123 146
e 123 151
e 123 152
e 123 155
e 123 156
e 124 126
e 124 135
e 124 137
e 124 144
e 124 149
e 124 157
e 124 159
e 125 134
e 125 148
e 125 149
e 125 157
e 126 128
e 126 133
e 126 134
e 126 147
e 126 149
e 126 152
e 126 155
e 127 128
e 127 131
e 127 140
e 127 142
e 127 145
e 127 146
e 127 156
e 128 131
e 128 137
e 128 138
e 129 139
e 129 147
e 129 154
e 129 157
e 129 160
e 130 138
e 130 140
e 130 143
e 130 146
e 130 147
e 130 160
e 131 133
e 131 135
e 131 136
e 131 145
e 131 148
e 131 150
e 131 153
e 131 159
e 132 135
e 132 136
e 132 146
e 132 149
e 132 159
e 133 135
e 133 137
e 133 141
e 133 153
e 133 156
e 134 139
e 134 142
e 134 143
e 134 149
e 134 154
e 134 159
e 135 145
e 135 152
e 135 158
e 136 144
e 136 148
e 136 153
e 136 158
e 137 148
e 137 149
e 137 151
e 137 152
e 137 157
e 138 139
e 138 146
e 138 147
e 138 152
e 138 153
e 138 158
e 139 149
e 139 155
e 139 156
e 139 160
e 140 147
e 140 148
e 140 149
e 140 151
e 140 155
e 141 143
e 141 145
e 141 146
e 141 154
e 141 159
e 142 154
e 143 154
e 143 159
e 144 152
e 144 155
e 144 159
e 145 146
e 145 147
e 145 148
e 145 151
e 146 152
e 146 153
e 146 156
e 146 157
e 147 149
e 147 158
e 148 154
e 148 156
e 148 159
e 149 153
e 149 160
e 150 152
e 150 155
e 150 156
e 151 156
e 151 157
e 154 157
e 155 160
e 158 159
e 159 160
